Test of Model Choice:
Parameters:
W = 100
K = 3
Duplications = 10
s = 5
r = 10
Starting Positions = 1.0, 1.01, 2.0

Gurobi Log Excerpt:
Academic license - for non-commercial use only - expires 2021-07-06
Using license file /Users/ellajohnsen/gurobi.lic
Gurobi Optimizer version 9.1.1 build v9.1.1rc0 (mac64)
Thread count: 8 physical cores, 8 logical processors, using up to 8 threads
Optimize a model with 1185 rows, 2574 columns and 38631 nonzeros
Model fingerprint: 0xa318301e
Variable types: 42 continuous, 2532 integer (2532 binary)
Coefficient statistics:
  Matrix range     [1e+00, 1e+02]
  Objective range  [3e+02, 1e+06]
  Bounds range     [1e+00, 1e+02]
  RHS range        [1e+00, 1e+02]
Found heuristic solution: objective 1.700000e+07
Presolve added 22 rows and 3 columns
Presolve time: 0.06s
Presolved: 1207 rows, 2577 columns, 16532 nonzeros
Variable types: 40 continuous, 2537 integer (2514 binary)

Root relaxation: objective 4.687381e+06, 789 iterations, 0.03 seconds

    Nodes    |    Current Node    |     Objective Bounds      |     Work
 Expl Unexpl |  Obj  Depth IntInf | Incumbent    BestBd   Gap | It/Node Time

     0     0 6019200.00    0  101 1.7000e+07 6019200.00  64.6%     -    0s
     0     0 6019200.00    0  124 1.7000e+07 6019200.00  64.6%     -    0s
     0     0 6019200.00    0   64 1.7000e+07 6019200.00  64.6%     -    0s
     0     0 6019200.00    0  141 1.7000e+07 6019200.00  64.6%     -    0s
     0     0 6019200.00    0  137 1.7000e+07 6019200.00  64.6%     -    0s
H    0     0                    1.600520e+07 6019200.00  62.4%     -    1s
     0     0 6019200.00    0   85 1.6005e+07 6019200.00  62.4%     -    1s
     0     0 6019200.00    0   63 1.6005e+07 6019200.00  62.4%     -    1s
H    0     0                    1.401240e+07 6019200.00  57.0%     -    1s
     0     0 6019200.00    0  135 1.4012e+07 6019200.00  57.0%     -    1s
H    0     0                    1.401190e+07 6019200.00  57.0%     -    1s
H    0     0                    1.401160e+07 6019200.00  57.0%     -    1s
H    0     0                    1.401110e+07 6019200.00  57.0%     -    1s
     0     0 6019200.00    0  157 1.4011e+07 6019200.00  57.0%     -    1s
     0     0 6019200.00    0  150 1.4011e+07 6019200.00  57.0%     -    1s
     0     0 6019200.00    0  132 1.4011e+07 6019200.00  57.0%     -    2s
     0     0 6019200.00    0  111 1.4011e+07 6019200.00  57.0%     -    2s
H    0     0                    1.401080e+07 6019200.00  57.0%     -    2s
     0     2 6019200.00    0   98 1.4011e+07 6019200.00  57.0%     -    2s
H   31    29                    1.201860e+07 6019200.00  49.9%   130    2s
H   74    66                    1.201660e+07 6019200.00  49.9%  91.8    3s
H   79    66                    1.201500e+07 6019200.00  49.9%  88.2    3s
H   82    66                    1.201460e+07 6019200.00  49.9%  86.2    3s
H  122   102                    1.101380e+07 6019200.00  45.3%  73.5    3s
   785   594 6019200.00   22   93 1.1014e+07 6019200.00  45.3%  46.3    5s
H 1675  1157                    1.001440e+07 6019200.00  39.9%  36.0    6s
H 1677  1100                    9018400.0000 6019200.00  33.3%  35.9    6s
H 1680  1046                    9016400.0000 6019200.00  33.2%  35.9    7s
  1688  1055 6019200.00   14   98 9016400.00 6019200.00  33.2%  43.5   10s
H 1756  1047                    8017000.0000 6019200.00  24.9%  52.8   11s
H 1817  1063                    8016000.0000 6019200.00  24.9%  58.9   13s
H 1837  1008                    7017600.0000 6019200.00  14.2%  59.4   13s
  2347  1371 6020400.00   47   96 7017600.00 6019200.00  14.2%  65.7   15s
  3497  1625 infeasible   66      7017600.00 6019200.00  14.2%  72.8   20s
  6807  2967 6020978.85  101   72 7017600.00 6019200.00  14.2%  68.2   27s
  6886  3012 6022628.93  108   77 7017600.00 6019200.00  14.2%  70.2   31s
  7331  3230 6021200.00  103   38 7017600.00 6019200.00  14.2%  75.0   36s
  7909  4439 infeasible   57      7017600.00 6019200.00  14.2%  78.6   40s
 10715  5844 infeasible   92      7017600.00 6019200.00  14.2%  79.1   45s
 13661  6524     cutoff   59      7017600.00 6019200.00  14.2%  74.5   51s
 16223  8066 6020775.23  108  124 7017600.00 6019200.00  14.2%  74.4   57s
 16233  8076 6019200.00   26  102 7017600.00 6019200.00  14.2%  74.7   60s
 16287  8073 6020400.00   32  106 7017600.00 6019200.00  14.2%  77.2   65s
 16401  8067 6353066.67   40   76 7017600.00 6019200.00  14.2%  79.6   70s
 16569  8030     cutoff   34      7017600.00 6019200.00  14.2%  82.4   75s
 16678  7976     cutoff   35      7017600.00 6019200.00  14.2%  84.0   80s
 17244  7923     cutoff   65      7017600.00 6020800.00  14.2%  87.8   85s
 17609  7784 infeasible  100      7017600.00 6020800.00  14.2%  92.6   90s
 18177  7454     cutoff   57      7017600.00 6022800.00  14.2%   100   95s

Cutting planes:
  Learned: 1
  Gomory: 2
  Cover: 26
  Implied bound: 1
  Projected implied bound: 4
  Clique: 10
  MIR: 10
  StrongCG: 6
  Flow cover: 5
  GUB cover: 25
  Zero half: 1
  RLT: 60
  Relax-and-lift: 1

Explored 18579 nodes (1862775 simplex iterations) in 99.54 seconds
Thread count was 8 (of 8 available processors)

Solution count 10: 7.0176e+06 8.016e+06 8.017e+06 ... 1.20166e+07

Optimal solution found (tolerance 1.00e-04)
Best objective 7.017600000000e+06, best bound 7.017600000000e+06, gap 0.0000%
